n_res = 4;
rcap = [17, 16, 59, 36];
rtype = [1, 1, 2, 2];
n_tasks = 16;
modes = [ {1, 2}, {3, 4}, {5, 6}, {7, 8}, {9, 10}, {11, 12}, {13, 14}, {15, 16}, {17, 18}, {19, 20}, {21, 22}, {23, 24}, {25, 26}, {27, 28}, {29, 30}, {31, 32} ];
succ = [ {4, 7, 9}, {11, 12, 16}, {6, 10, 12}, {5}, {8, 12, 13}, {9, 13}, {10, 13, 16}, {14, 16}, {11}, {11, 15}, {14}, {15}, {14, 15}, {}, {}, {} ];
n_opt = 32;
dur = [6, 10, 3, 9, 3, 6, 5, 8, 4, 4, 2, 3, 1, 7, 4, 4, 4, 6, 6, 10, 1, 7, 7, 9, 1, 2, 9, 9, 1, 8, 9, 10];
rreq = [|  5,  4,  3,  3, 10, 10,  4,  3,  5,  4, 10,  9,  6,  5,  5,  2,  7,  5,  5,  3,  8,  3,  6,  6,  5,  4,  5,  5,  9,  6,  9,  9
        |  7,  6,  7,  7,  3,  3,  7,  5,  3,  5,  7,  4,  5,  5,  5,  6,  9,  9,  7,  6,  8,  8,  2,  1,  8,  5,  5,  6,  9,  6,  8,  6
        |  0,  0,  8,  0, 10,  8,  7,  7,  8,  0,  0,  0,  0,  4,  3,  2,  0,  0, 10,  6,  0,  7,  8,  4,  8,  4,  0,  4,  5,  0,  0,  5
        |  6,  6,  0,  2,  0,  0,  0,  0,  0,  3,  9,  5,  2,  0,  0,  0,  7,  5,  0,  0,  4,  0,  0,  0,  0,  0,  9,  0,  0,  6,  7,  0 |];
